
Gurobi 5.6.3 (linux64) logging started Sun Nov 22 20:03:44 2015


Gurobi 5.6.3 (linux64) logging started Thu Nov 26 00:20:52 2015


Gurobi 5.6.3 (linux64) logging started Thu Nov 26 00:27:38 2015


Gurobi 5.6.3 (linux64) logging started Thu Nov 26 00:28:15 2015


Gurobi 5.6.3 (linux64) logging started Thu Nov 26 00:35:12 2015


Gurobi 5.6.3 (linux64) logging started Thu Nov 26 00:38:55 2015


Gurobi 5.6.3 (linux64) logging started Thu Nov 26 00:39:19 2015


Gurobi 5.6.3 (linux64) logging started Thu Nov 26 00:40:23 2015


Gurobi 5.6.3 (linux64) logging started Thu Nov 26 00:56:39 2015


Gurobi 5.6.3 (linux64) logging started Thu Nov 26 00:57:11 2015


Gurobi 5.6.3 (linux64) logging started Thu Nov 26 00:57:45 2015


Gurobi 5.6.3 (linux64) logging started Thu Nov 26 01:21:39 2015


Gurobi 5.6.3 (linux64) logging started Thu Nov 26 01:21:57 2015


Gurobi 5.6.3 (linux64) logging started Thu Nov 26 01:22:14 2015


Gurobi 5.6.3 (linux64) logging started Thu Nov 26 01:22:44 2015


Gurobi 5.6.3 (linux64) logging started Thu Nov 26 01:25:47 2015


Gurobi 5.6.3 (linux64) logging started Thu Nov 26 01:26:10 2015


Gurobi 5.6.3 (linux64) logging started Thu Nov 26 07:08:00 2015


Gurobi 5.6.3 (linux64) logging started Thu Nov 26 07:10:44 2015


Gurobi 5.6.3 (linux64) logging started Thu Nov 26 07:17:32 2015


Gurobi 5.6.3 (linux64) logging started Thu Nov 26 07:43:21 2015


Gurobi 5.6.3 (linux64) logging started Thu Nov 26 07:43:47 2015


Gurobi 5.6.3 (linux64) logging started Thu Nov 26 08:23:53 2015


Gurobi 5.6.3 (linux64) logging started Thu Nov 26 19:17:22 2015


Gurobi 5.6.3 (linux64) logging started Thu Nov 26 19:17:27 2015


Gurobi 5.6.3 (linux64) logging started Thu Nov 26 20:05:56 2015


Gurobi 5.6.3 (linux64) logging started Thu Nov 26 21:16:05 2015


Gurobi 5.6.3 (linux64) logging started Fri Nov 27 18:32:31 2015


Gurobi 5.6.3 (linux64) logging started Tue Dec  1 21:19:41 2015


Gurobi 5.6.3 (linux64) logging started Tue Dec  1 23:26:06 2015


Gurobi 5.6.3 (linux64) logging started Fri Mar 18 17:27:13 2016


Gurobi 5.6.3 (linux64) logging started Fri Mar 18 17:27:27 2016


Gurobi 5.6.3 (linux64) logging started Fri Mar 18 17:28:18 2016


Gurobi 5.6.3 (linux64) logging started Fri Mar 18 17:30:04 2016


Gurobi 5.6.3 (linux64) logging started Thu Jun  2 06:06:12 2016


Gurobi 5.6.3 (linux64) logging started Mon Jun  6 16:16:07 2016


Gurobi 5.6.3 (linux64) logging started Mon Jun  6 17:25:41 2016


Gurobi 5.6.3 (linux64) logging started Mon Jun  6 18:21:24 2016


Gurobi 5.6.3 (linux64) logging started Mon Jun  6 20:22:05 2016


Gurobi 5.6.3 (linux64) logging started Mon Jun  6 20:37:00 2016


Gurobi 5.6.3 (linux64) logging started Mon Jun  6 20:39:03 2016


Gurobi 5.6.3 (linux64) logging started Mon Jun  6 20:40:32 2016


Gurobi 5.6.3 (linux64) logging started Mon Jun  6 20:41:23 2016


Gurobi 5.6.3 (linux64) logging started Mon Jun  6 20:42:09 2016


Gurobi 5.6.3 (linux64) logging started Mon Jun  6 20:42:41 2016


Gurobi 5.6.3 (linux64) logging started Mon Jun  6 20:44:19 2016


Gurobi 5.6.3 (linux64) logging started Mon Jun  6 20:47:19 2016


Gurobi 5.6.3 (linux64) logging started Mon Jun  6 20:48:18 2016


Gurobi 5.6.3 (linux64) logging started Mon Jun  6 20:50:16 2016


Gurobi 5.6.3 (linux64) logging started Mon Jun  6 20:52:02 2016


Gurobi 5.6.3 (linux64) logging started Mon Jun  6 21:06:39 2016


Gurobi 5.6.3 (linux64) logging started Mon Jun  6 21:17:12 2016


Gurobi 5.6.3 (linux64) logging started Mon Jun  6 23:06:25 2016


Gurobi 5.6.3 (linux64) logging started Mon Jun  6 23:16:07 2016


Gurobi 5.6.3 (linux64) logging started Mon Jun  6 23:26:41 2016


Gurobi 5.6.3 (linux64) logging started Tue Jun  7 00:22:42 2016


Gurobi 5.6.3 (linux64) logging started Tue Jun  7 00:23:02 2016


Gurobi 5.6.3 (linux64) logging started Tue Jun  7 00:23:29 2016


Gurobi 5.6.3 (linux64) logging started Mon Jun 13 05:16:04 2016


Gurobi 5.6.3 (linux64) logging started Mon Jun 13 05:19:01 2016


Gurobi 5.6.3 (linux64) logging started Mon Jun 13 05:19:43 2016


Gurobi 5.6.3 (linux64) logging started Mon Jun 13 05:20:41 2016


Gurobi 5.6.3 (linux64) logging started Mon Jun 13 05:23:25 2016


Gurobi 5.6.3 (linux64) logging started Sat Oct 15 15:49:24 2016


Gurobi 5.6.3 (linux64) logging started Sat Oct 15 17:59:45 2016


Gurobi 5.6.3 (linux64) logging started Sun Oct 16 19:10:33 2016


Gurobi 5.6.3 (linux64) logging started Sun Oct 16 20:20:32 2016


Gurobi 5.6.3 (linux64) logging started Mon Oct 17 13:54:11 2016


Gurobi 5.6.3 (linux64) logging started Mon Nov 14 22:20:05 2016


Gurobi 5.6.3 (linux64) logging started Mon Nov 14 22:35:45 2016


Gurobi 5.6.3 (linux64) logging started Mon Nov 14 23:54:00 2016


Gurobi 5.6.3 (linux64) logging started Mon Nov 14 23:55:16 2016


Gurobi 5.6.3 (linux64) logging started Mon Nov 14 23:58:16 2016


Gurobi 5.6.3 (linux64) logging started Mon Nov 14 23:58:34 2016


Gurobi 5.6.3 (linux64) logging started Tue Nov 15 00:03:19 2016


Gurobi 5.6.3 (linux64) logging started Tue Nov 15 00:03:39 2016


Gurobi 5.6.3 (linux64) logging started Tue Nov 15 00:04:16 2016


Gurobi 5.6.3 (linux64) logging started Tue Nov 15 00:04:24 2016


Gurobi 5.6.3 (linux64) logging started Tue Nov 15 00:04:46 2016


Gurobi 5.6.3 (linux64) logging started Tue Nov 15 00:04:55 2016


Gurobi 5.6.3 (linux64) logging started Tue Nov 15 00:05:38 2016


Gurobi 5.6.3 (linux64) logging started Tue Nov 15 00:06:24 2016


Gurobi 5.6.3 (linux64) logging started Tue Nov 15 00:07:26 2016


Gurobi 5.6.3 (linux64) logging started Tue Nov 15 00:13:58 2016


Gurobi 5.6.3 (linux64) logging started Tue Nov 15 00:14:02 2016


Gurobi 5.6.3 (linux64) logging started Tue Nov 15 00:15:12 2016


Gurobi 5.6.3 (linux64) logging started Tue Nov 15 00:15:37 2016


Gurobi 5.6.3 (linux64) logging started Tue Nov 15 00:49:41 2016


Gurobi 5.6.3 (linux64) logging started Tue Nov 15 00:52:31 2016


Gurobi 5.6.3 (linux64) logging started Tue Nov 15 00:55:34 2016


Gurobi 5.6.3 (linux64) logging started Tue Nov 15 00:58:33 2016


Gurobi 5.6.3 (linux64) logging started Tue Nov 15 01:02:34 2016


Gurobi 5.6.3 (linux64) logging started Tue Nov 15 01:03:02 2016


Gurobi 5.6.3 (linux64) logging started Tue Nov 15 01:06:05 2016


Gurobi 5.6.3 (linux64) logging started Tue Nov 15 01:07:55 2016


Gurobi 5.6.3 (linux64) logging started Tue Nov 15 01:11:32 2016


Gurobi 5.6.3 (linux64) logging started Tue Nov 15 01:14:29 2016


Gurobi 5.6.3 (linux64) logging started Tue Nov 15 01:25:55 2016


Gurobi 5.6.3 (linux64) logging started Tue Nov 15 01:28:21 2016


Gurobi 5.6.3 (linux64) logging started Tue Nov 15 01:28:53 2016


Gurobi 5.6.3 (linux64) logging started Tue Nov 15 01:32:59 2016


Gurobi 5.6.3 (linux64) logging started Tue Nov 15 01:34:43 2016


Gurobi 5.6.3 (linux64) logging started Tue Nov 15 01:35:47 2016


Gurobi 5.6.3 (linux64) logging started Tue Nov 15 01:38:19 2016


Gurobi 5.6.3 (linux64) logging started Tue Nov 15 01:38:44 2016


Gurobi 5.6.3 (linux64) logging started Tue Nov 15 01:39:34 2016


Gurobi 5.6.3 (linux64) logging started Tue Nov 15 01:43:12 2016


Gurobi 5.6.3 (linux64) logging started Tue Nov 15 01:45:09 2016


Gurobi 5.6.3 (linux64) logging started Tue Nov 15 01:45:46 2016


Gurobi 5.6.3 (linux64) logging started Tue Nov 15 06:47:23 2016


Gurobi 5.6.3 (linux64) logging started Tue Nov 15 06:58:09 2016


Gurobi 5.6.3 (linux64) logging started Tue Nov 15 06:58:42 2016


Gurobi 5.6.3 (linux64) logging started Tue Nov 15 06:59:38 2016


Gurobi 5.6.3 (linux64) logging started Tue Nov 15 07:14:17 2016


Gurobi 5.6.3 (linux64) logging started Tue Nov 15 07:34:32 2016


Gurobi 5.6.3 (linux64) logging started Tue Nov 15 19:29:02 2016


Gurobi 5.6.3 (linux64) logging started Tue Nov 15 19:47:50 2016


Gurobi 5.6.3 (linux64) logging started Tue Nov 15 20:03:32 2016


Gurobi 5.6.3 (linux64) logging started Tue Nov 15 20:49:35 2016


Gurobi 5.6.3 (linux64) logging started Tue Nov 15 20:58:09 2016


Gurobi 5.6.3 (linux64) logging started Tue Nov 15 21:17:21 2016


Gurobi 5.6.3 (linux64) logging started Tue Nov 15 21:20:14 2016


Gurobi 5.6.3 (linux64) logging started Tue Nov 15 21:25:45 2016


Gurobi 5.6.3 (linux64) logging started Tue Nov 15 21:28:04 2016


Gurobi 5.6.3 (linux64) logging started Tue Nov 15 22:00:01 2016


Gurobi 5.6.3 (linux64) logging started Tue Nov 15 22:26:34 2016


Gurobi 5.6.3 (linux64) logging started Tue Nov 15 22:42:28 2016


Gurobi 5.6.3 (linux64) logging started Tue Nov 15 22:56:33 2016


Gurobi 5.6.3 (linux64) logging started Tue Nov 15 22:56:51 2016


Gurobi 5.6.3 (linux64) logging started Tue Nov 15 22:57:43 2016


Gurobi 5.6.3 (linux64) logging started Tue Nov 15 22:57:59 2016


Gurobi 5.6.3 (linux64) logging started Tue Nov 15 23:03:19 2016


Gurobi 5.6.3 (linux64) logging started Tue Nov 15 23:04:37 2016


Gurobi 5.6.3 (linux64) logging started Tue Nov 15 23:05:41 2016


Gurobi 5.6.3 (linux64) logging started Tue Nov 15 23:08:41 2016


Gurobi 5.6.3 (linux64) logging started Tue Nov 15 23:09:27 2016


Gurobi 5.6.3 (linux64) logging started Tue Nov 15 23:10:58 2016


Gurobi 5.6.3 (linux64) logging started Tue Nov 15 23:11:21 2016


Gurobi 5.6.3 (linux64) logging started Tue Nov 15 23:11:56 2016


Gurobi 5.6.3 (linux64) logging started Tue Nov 15 23:12:25 2016


Gurobi 5.6.3 (linux64) logging started Tue Nov 15 23:12:57 2016


Gurobi 5.6.3 (linux64) logging started Tue Nov 15 23:13:53 2016


Gurobi 5.6.3 (linux64) logging started Tue Nov 15 23:14:10 2016


Gurobi 5.6.3 (linux64) logging started Tue Nov 15 23:14:19 2016


Gurobi 5.6.3 (linux64) logging started Tue Nov 15 23:14:28 2016


Gurobi 5.6.3 (linux64) logging started Tue Nov 15 23:16:46 2016


Gurobi 5.6.3 (linux64) logging started Tue Nov 15 23:17:31 2016


Gurobi 5.6.3 (linux64) logging started Tue Nov 15 23:17:38 2016


Gurobi 5.6.3 (linux64) logging started Tue Nov 15 23:18:30 2016


Gurobi 5.6.3 (linux64) logging started Tue Nov 15 23:18:58 2016


Gurobi 5.6.3 (linux64) logging started Tue Nov 15 23:19:13 2016


Gurobi 5.6.3 (linux64) logging started Tue Nov 15 23:19:31 2016


Gurobi 5.6.3 (linux64) logging started Tue Nov 15 23:23:27 2016


Gurobi 5.6.3 (linux64) logging started Tue Nov 15 23:23:42 2016


Gurobi 5.6.3 (linux64) logging started Tue Nov 15 23:24:16 2016


Gurobi 5.6.3 (linux64) logging started Tue Nov 15 23:25:48 2016


Gurobi 5.6.3 (linux64) logging started Tue Nov 15 23:26:30 2016


Gurobi 5.6.3 (linux64) logging started Tue Nov 15 23:39:46 2016


Gurobi 5.6.3 (linux64) logging started Tue Nov 15 23:41:17 2016


Gurobi 5.6.3 (linux64) logging started Tue Nov 15 23:43:00 2016


Gurobi 5.6.3 (linux64) logging started Tue Nov 15 23:43:33 2016


Gurobi 5.6.3 (linux64) logging started Tue Nov 15 23:47:17 2016


Gurobi 5.6.3 (linux64) logging started Tue Nov 15 23:51:51 2016


Gurobi 5.6.3 (linux64) logging started Tue Nov 15 23:57:52 2016


Gurobi 5.6.3 (linux64) logging started Tue Nov 15 23:59:39 2016


Gurobi 5.6.3 (linux64) logging started Tue Nov 15 23:59:48 2016


Gurobi 5.6.3 (linux64) logging started Wed Nov 16 00:01:27 2016


Gurobi 5.6.3 (linux64) logging started Wed Nov 16 00:04:35 2016


Gurobi 5.6.3 (linux64) logging started Wed Nov 16 00:05:09 2016


Gurobi 5.6.3 (linux64) logging started Wed Nov 16 00:46:18 2016


Gurobi 5.6.3 (linux64) logging started Wed Nov 16 00:47:47 2016


Gurobi 5.6.3 (linux64) logging started Wed Nov 16 00:47:57 2016


Gurobi 5.6.3 (linux64) logging started Wed Nov 16 00:48:53 2016


Gurobi 5.6.3 (linux64) logging started Wed Nov 16 00:58:51 2016


Gurobi 5.6.3 (linux64) logging started Wed Nov 16 01:02:47 2016


Gurobi 5.6.3 (linux64) logging started Wed Nov 16 01:04:33 2016


Gurobi 5.6.3 (linux64) logging started Wed Nov 16 01:04:50 2016


Gurobi 5.6.3 (linux64) logging started Wed Nov 16 01:05:09 2016


Gurobi 5.6.3 (linux64) logging started Wed Nov 16 01:05:31 2016


Gurobi 5.6.3 (linux64) logging started Wed Nov 16 01:05:42 2016


Gurobi 5.6.3 (linux64) logging started Wed Nov 16 01:06:00 2016


Gurobi 5.6.3 (linux64) logging started Wed Nov 16 01:07:31 2016


Gurobi 5.6.3 (linux64) logging started Wed Nov 16 01:08:36 2016


Gurobi 5.6.3 (linux64) logging started Wed Nov 16 01:13:16 2016


Gurobi 5.6.3 (linux64) logging started Thu Nov 17 14:04:10 2016


Gurobi 5.6.3 (linux64) logging started Thu Nov 17 14:04:20 2016


Gurobi 5.6.3 (linux64) logging started Thu Nov 17 14:08:03 2016


Gurobi 5.6.3 (linux64) logging started Thu Nov 17 14:08:48 2016


Gurobi 5.6.3 (linux64) logging started Thu Nov 17 14:09:18 2016


Gurobi 5.6.3 (linux64) logging started Thu Nov 17 14:10:17 2016


Gurobi 5.6.3 (linux64) logging started Thu Nov 17 14:10:42 2016


Gurobi 5.6.3 (linux64) logging started Thu Nov 17 14:15:42 2016


Gurobi 5.6.3 (linux64) logging started Thu Nov 17 14:18:30 2016


Gurobi 5.6.3 (linux64) logging started Thu Nov 17 14:21:25 2016


Gurobi 5.6.3 (linux64) logging started Thu Nov 17 17:36:00 2016


Gurobi 5.6.3 (linux64) logging started Thu Nov 17 17:36:54 2016


Gurobi 5.6.3 (linux64) logging started Thu Nov 17 17:37:31 2016


Gurobi 5.6.3 (linux64) logging started Thu Nov 17 17:38:18 2016


Gurobi 5.6.3 (linux64) logging started Thu Nov 17 17:39:34 2016


Gurobi 5.6.3 (linux64) logging started Thu Nov 17 17:40:04 2016


Gurobi 5.6.3 (linux64) logging started Thu Nov 17 17:40:32 2016


Gurobi 5.6.3 (linux64) logging started Thu Nov 17 17:41:32 2016


Gurobi 5.6.3 (linux64) logging started Thu Nov 17 19:20:57 2016


Gurobi 5.6.3 (linux64) logging started Thu Nov 17 19:21:28 2016


Gurobi 5.6.3 (linux64) logging started Thu Nov 17 19:22:14 2016


Gurobi 5.6.3 (linux64) logging started Thu Nov 17 19:24:45 2016


Gurobi 5.6.3 (linux64) logging started Thu Nov 17 19:25:36 2016


Gurobi 5.6.3 (linux64) logging started Thu Nov 17 19:26:02 2016


Gurobi 5.6.3 (linux64) logging started Thu Nov 17 19:26:35 2016


Gurobi 5.6.3 (linux64) logging started Thu Nov 17 19:27:59 2016


Gurobi 5.6.3 (linux64) logging started Thu Nov 17 19:28:36 2016


Gurobi 5.6.3 (linux64) logging started Thu Nov 17 19:29:04 2016


Gurobi 5.6.3 (linux64) logging started Thu Nov 17 19:31:55 2016


Gurobi 5.6.3 (linux64) logging started Thu Nov 17 19:33:10 2016


Gurobi 5.6.3 (linux64) logging started Thu Nov 17 19:33:51 2016


Gurobi 5.6.3 (linux64) logging started Thu Nov 17 19:34:52 2016


Gurobi 5.6.3 (linux64) logging started Thu Nov 17 19:36:13 2016


Gurobi 5.6.3 (linux64) logging started Thu Nov 17 19:36:43 2016


Gurobi 5.6.3 (linux64) logging started Thu Nov 17 19:36:48 2016


Gurobi 5.6.3 (linux64) logging started Thu Nov 17 19:38:09 2016


Gurobi 5.6.3 (linux64) logging started Thu Nov 17 19:38:33 2016


Gurobi 5.6.3 (linux64) logging started Thu Nov 17 19:38:52 2016


Gurobi 5.6.3 (linux64) logging started Thu Nov 17 19:40:02 2016


Gurobi 5.6.3 (linux64) logging started Thu Nov 17 19:40:34 2016


Gurobi 5.6.3 (linux64) logging started Thu Nov 17 19:40:53 2016


Gurobi 5.6.3 (linux64) logging started Thu Nov 17 19:42:31 2016


Gurobi 5.6.3 (linux64) logging started Thu Nov 17 19:43:29 2016


Gurobi 5.6.3 (linux64) logging started Thu Nov 17 19:44:42 2016


Gurobi 5.6.3 (linux64) logging started Thu Nov 17 19:45:13 2016


Gurobi 5.6.3 (linux64) logging started Thu Nov 17 19:45:59 2016


Gurobi 5.6.3 (linux64) logging started Thu Nov 17 19:46:24 2016


Gurobi 5.6.3 (linux64) logging started Thu Nov 17 19:54:43 2016


Gurobi 5.6.3 (linux64) logging started Thu Nov 17 20:00:57 2016


Gurobi 5.6.3 (linux64) logging started Thu Nov 17 20:01:25 2016


Gurobi 5.6.3 (linux64) logging started Thu Nov 17 20:04:11 2016


Gurobi 5.6.3 (linux64) logging started Thu Nov 17 20:05:28 2016


Gurobi 5.6.3 (linux64) logging started Thu Nov 17 20:06:28 2016


Gurobi 5.6.3 (linux64) logging started Thu Nov 17 20:27:12 2016


Gurobi 5.6.3 (linux64) logging started Thu Nov 17 20:35:33 2016


Gurobi 5.6.3 (linux64) logging started Thu Nov 17 20:36:46 2016


Gurobi 5.6.3 (linux64) logging started Thu Nov 17 20:38:04 2016


Gurobi 5.6.3 (linux64) logging started Thu Nov 17 20:39:14 2016


Gurobi 5.6.3 (linux64) logging started Thu Nov 17 20:40:21 2016


Gurobi 5.6.3 (linux64) logging started Thu Nov 17 20:45:07 2016


Gurobi 5.6.3 (linux64) logging started Thu Nov 17 20:45:54 2016


Gurobi 5.6.3 (linux64) logging started Thu Nov 17 20:48:41 2016


Gurobi 5.6.3 (linux64) logging started Thu Nov 17 20:53:33 2016


Gurobi 5.6.3 (linux64) logging started Thu Nov 17 20:58:25 2016


Gurobi 5.6.3 (linux64) logging started Thu Nov 17 21:33:58 2016


Gurobi 5.6.3 (linux64) logging started Thu Nov 17 21:48:07 2016


Gurobi 5.6.3 (linux64) logging started Thu Nov 17 22:22:41 2016


Gurobi 5.6.3 (linux64) logging started Thu Nov 17 22:22:55 2016


Gurobi 5.6.3 (linux64) logging started Thu Nov 17 22:30:21 2016


Gurobi 5.6.3 (linux64) logging started Thu Nov 17 22:33:55 2016


Gurobi 5.6.3 (linux64) logging started Thu Nov 17 23:24:47 2016


Gurobi 5.6.3 (linux64) logging started Thu Nov 17 23:54:20 2016


Gurobi 5.6.3 (linux64) logging started Fri Nov 18 00:05:04 2016


Gurobi 5.6.3 (linux64) logging started Fri Nov 18 00:30:31 2016


Gurobi 5.6.3 (linux64) logging started Fri Nov 18 05:44:45 2016


Gurobi 5.6.3 (linux64) logging started Fri Nov 18 06:21:48 2016


Gurobi 5.6.3 (linux64) logging started Fri Nov 18 06:29:43 2016


Gurobi 5.6.3 (linux64) logging started Fri Nov 18 20:58:00 2016


Gurobi 5.6.3 (linux64) logging started 2016년 11월 18일 (금) 오후 10시 35분 36초


Gurobi 5.6.3 (linux64) logging started 2016년 11월 18일 (금) 오후 10시 50분 59초


Gurobi 5.6.3 (linux64) logging started 2016년 11월 18일 (금) 오후 11시 05분 49초


Gurobi 5.6.3 (linux64) logging started 2016년 11월 18일 (금) 오후 11시 06분 46초


Gurobi 5.6.3 (linux64) logging started 2016년 11월 18일 (금) 오후 11시 07분 57초


Gurobi 5.6.3 (linux64) logging started 2016년 11월 18일 (금) 오후 11시 59분 46초


Gurobi 5.6.3 (linux64) logging started 2016년 11월 19일 (토) 오전 12시 09분 02초


Gurobi 5.6.3 (linux64) logging started 2016년 11월 19일 (토) 오전 12시 28분 08초


Gurobi 5.6.3 (linux64) logging started 2016년 11월 19일 (토) 오전 12시 35분 59초


Gurobi 5.6.3 (linux64) logging started Sat Nov 19 00:54:13 2016


Gurobi 5.6.3 (linux64) logging started Sat Nov 19 00:56:27 2016


Gurobi 5.6.3 (linux64) logging started Sat Nov 19 00:57:17 2016


Gurobi 5.6.3 (linux64) logging started Sat Nov 19 00:57:36 2016


Gurobi 5.6.3 (linux64) logging started Sat Nov 19 00:58:03 2016


Gurobi 5.6.3 (linux64) logging started Sat Nov 19 01:01:12 2016


Gurobi 5.6.3 (linux64) logging started Sat Nov 19 01:01:30 2016


Gurobi 5.6.3 (linux64) logging started Sat Nov 19 01:01:40 2016


Gurobi 5.6.3 (linux64) logging started Sat Nov 19 01:01:45 2016


Gurobi 5.6.3 (linux64) logging started Sat Nov 19 01:02:43 2016


Gurobi 5.6.3 (linux64) logging started 2016년 11월 19일 (토) 오전 01시 03분 18초


Gurobi 5.6.3 (linux64) logging started Sat Nov 19 01:03:45 2016


Gurobi 5.6.3 (linux64) logging started Sat Nov 19 01:04:09 2016


Gurobi 5.6.3 (linux64) logging started 2016년 11월 19일 (토) 오전 01시 05분 38초


Gurobi 5.6.3 (linux64) logging started Sat Nov 19 01:06:19 2016


Gurobi 5.6.3 (linux64) logging started 2016년 11월 19일 (토) 오전 07시 02분 40초


Gurobi 5.6.3 (linux64) logging started 2016년 11월 19일 (토) 오전 07시 44분 13초


Gurobi 5.6.3 (linux64) logging started 2016년 11월 19일 (토) 오전 07시 50분 00초


Gurobi 5.6.3 (linux64) logging started 2016년 11월 19일 (토) 오전 08시 29분 52초


Gurobi 5.6.3 (linux64) logging started Sat Nov 19 09:05:52 2016


Gurobi 5.6.3 (linux64) logging started 2016년 11월 19일 (토) 오전 09시 08분 01초


Gurobi 5.6.3 (linux64) logging started Sat Nov 19 09:09:26 2016


Gurobi 5.6.3 (linux64) logging started Sat Nov 19 09:10:16 2016


Gurobi 5.6.3 (linux64) logging started 2016년 11월 19일 (토) 오전 09시 11분 42초


Gurobi 5.6.3 (linux64) logging started Sat Nov 19 09:14:44 2016


Gurobi 5.6.3 (linux64) logging started Sat Nov 19 09:15:03 2016


Gurobi 5.6.3 (linux64) logging started Sat Nov 19 09:17:28 2016


Gurobi 5.6.3 (linux64) logging started Sat Nov 19 09:18:14 2016


Gurobi 5.6.3 (linux64) logging started Sat Nov 19 09:18:48 2016


Gurobi 5.6.3 (linux64) logging started Sat Nov 19 09:19:06 2016


Gurobi 5.6.3 (linux64) logging started Sat Nov 19 09:19:25 2016


Gurobi 5.6.3 (linux64) logging started Sat Nov 19 09:19:33 2016


Gurobi 5.6.3 (linux64) logging started Sat Nov 19 09:23:44 2016


Gurobi 5.6.3 (linux64) logging started Sat Nov 19 09:24:53 2016


Gurobi 5.6.3 (linux64) logging started Sat Nov 19 09:25:26 2016


Gurobi 5.6.3 (linux64) logging started Sat Nov 19 09:26:06 2016


Gurobi 5.6.3 (linux64) logging started 2016년 11월 20일 (일) 오전 07시 34분 59초


Gurobi 5.6.3 (linux64) logging started Sun Nov 20 07:36:01 2016


Gurobi 5.6.3 (linux64) logging started Sun Nov 20 07:36:34 2016


Gurobi 5.6.3 (linux64) logging started Sun Nov 20 07:39:43 2016


Gurobi 5.6.3 (linux64) logging started Sun Nov 20 07:45:12 2016


Gurobi 5.6.3 (linux64) logging started Sun Nov 20 07:47:18 2016


Gurobi 5.6.3 (linux64) logging started Sun Nov 20 07:49:52 2016


Gurobi 5.6.3 (linux64) logging started Sun Nov 20 07:50:26 2016


Gurobi 5.6.3 (linux64) logging started Sun Nov 20 07:51:08 2016


Gurobi 5.6.3 (linux64) logging started Sun Nov 20 08:14:39 2016


Gurobi 5.6.3 (linux64) logging started Sun Nov 20 08:15:22 2016


Gurobi 5.6.3 (linux64) logging started Sun Nov 20 08:57:21 2016


Gurobi 5.6.3 (linux64) logging started Sun Nov 20 09:03:08 2016


Gurobi 5.6.3 (linux64) logging started Sun Nov 20 09:07:06 2016


Gurobi 5.6.3 (linux64) logging started Sun Nov 20 09:07:56 2016


Gurobi 5.6.3 (linux64) logging started 2016년 11월 20일 (일) 오전 09시 08분 57초


Gurobi 5.6.3 (linux64) logging started Sun Nov 20 09:14:33 2016


Gurobi 5.6.3 (linux64) logging started Sun Nov 20 09:15:32 2016


Gurobi 5.6.3 (linux64) logging started 2016년 11월 20일 (일) 오전 09시 25분 52초


Gurobi 5.6.3 (linux64) logging started Sun Nov 20 09:27:12 2016


Gurobi 5.6.3 (linux64) logging started Sun Nov 20 09:27:59 2016


Gurobi 5.6.3 (linux64) logging started Sun Nov 20 09:29:05 2016


Gurobi 5.6.3 (linux64) logging started Sun Nov 20 09:29:53 2016


Gurobi 5.6.3 (linux64) logging started Sun Nov 20 09:30:11 2016


Gurobi 5.6.3 (linux64) logging started Sun Nov 20 10:23:07 2016


Gurobi 5.6.3 (linux64) logging started Sun Nov 20 10:26:09 2016


Gurobi 5.6.3 (linux64) logging started Sun Nov 20 10:28:11 2016


Gurobi 5.6.3 (linux64) logging started Sun Nov 20 10:29:56 2016


Gurobi 5.6.3 (linux64) logging started Sun Nov 20 10:30:19 2016


Gurobi 5.6.3 (linux64) logging started Sun Nov 20 10:31:19 2016


Gurobi 5.6.3 (linux64) logging started Sun Nov 20 10:34:00 2016


Gurobi 5.6.3 (linux64) logging started Sun Nov 20 10:34:51 2016


Gurobi 5.6.3 (linux64) logging started Sun Nov 20 10:35:26 2016


Gurobi 5.6.3 (linux64) logging started Sun Nov 20 10:36:49 2016


Gurobi 5.6.3 (linux64) logging started Sun Nov 20 10:37:43 2016


Gurobi 5.6.3 (linux64) logging started Sun Nov 20 10:38:28 2016


Gurobi 5.6.3 (linux64) logging started Sun Nov 20 10:44:21 2016


Gurobi 5.6.3 (linux64) logging started Sun Nov 20 10:46:54 2016


Gurobi 5.6.3 (linux64) logging started Sun Nov 20 10:48:40 2016


Gurobi 5.6.3 (linux64) logging started Sun Nov 20 18:22:21 2016


Gurobi 5.6.3 (linux64) logging started Sun Nov 20 18:30:44 2016


Gurobi 5.6.3 (linux64) logging started 2016년 11월 20일 (일) 오후 06시 36분 02초


Gurobi 5.6.3 (linux64) logging started Sun Nov 20 18:42:27 2016


Gurobi 5.6.3 (linux64) logging started Sun Nov 20 18:42:51 2016


Gurobi 5.6.3 (linux64) logging started Sun Nov 20 18:43:29 2016


Gurobi 5.6.3 (linux64) logging started Sun Nov 20 18:45:24 2016


Gurobi 5.6.3 (linux64) logging started Sun Nov 20 18:53:57 2016


Gurobi 5.6.3 (linux64) logging started Sun Nov 20 18:54:31 2016


Gurobi 5.6.3 (linux64) logging started Sun Nov 20 18:55:51 2016


Gurobi 5.6.3 (linux64) logging started Sun Nov 20 18:56:23 2016


Gurobi 5.6.3 (linux64) logging started 2016년 11월 20일 (일) 오후 07시 10분 53초


Gurobi 5.6.3 (linux64) logging started Sun Nov 20 20:00:49 2016


Gurobi 5.6.3 (linux64) logging started Sun Nov 20 20:11:18 2016


Gurobi 5.6.3 (linux64) logging started Sun Nov 20 20:12:08 2016


Gurobi 5.6.3 (linux64) logging started Sun Nov 20 20:13:01 2016


Gurobi 5.6.3 (linux64) logging started Sun Nov 20 20:13:32 2016


Gurobi 5.6.3 (linux64) logging started Sun Nov 20 20:22:55 2016


Gurobi 5.6.3 (linux64) logging started Sun Nov 20 20:34:43 2016


Gurobi 5.6.3 (linux64) logging started Sun Nov 20 20:35:51 2016


Gurobi 5.6.3 (linux64) logging started Sun Nov 20 20:38:00 2016


Gurobi 5.6.3 (linux64) logging started Sun Nov 20 20:39:05 2016


Gurobi 5.6.3 (linux64) logging started Sun Nov 20 20:39:57 2016


Gurobi 5.6.3 (linux64) logging started Sun Nov 20 20:43:43 2016


Gurobi 5.6.3 (linux64) logging started Sun Nov 20 20:44:38 2016


Gurobi 5.6.3 (linux64) logging started Mon Nov 21 00:32:59 2016


Gurobi 5.6.3 (linux64) logging started Mon Nov 21 21:17:45 2016


Gurobi 5.6.3 (linux64) logging started Mon Nov 21 21:32:00 2016


Gurobi 5.6.3 (linux64) logging started Mon Nov 21 21:33:07 2016


Gurobi 5.6.3 (linux64) logging started Mon Nov 21 21:33:22 2016


Gurobi 5.6.3 (linux64) logging started Mon Nov 21 21:36:00 2016


Gurobi 5.6.3 (linux64) logging started Mon Nov 21 21:36:56 2016


Gurobi 5.6.3 (linux64) logging started Mon Nov 21 21:46:47 2016


Gurobi 5.6.3 (linux64) logging started Mon Nov 21 21:56:46 2016


Gurobi 5.6.3 (linux64) logging started Mon Nov 21 21:57:08 2016


Gurobi 5.6.3 (linux64) logging started Mon Nov 21 22:00:57 2016


Gurobi 5.6.3 (linux64) logging started Mon Nov 21 22:28:36 2016


Gurobi 5.6.3 (linux64) logging started Mon Nov 21 22:29:10 2016


Gurobi 5.6.3 (linux64) logging started Mon Nov 21 22:29:28 2016


Gurobi 5.6.3 (linux64) logging started Mon Nov 21 23:35:11 2016


Gurobi 5.6.3 (linux64) logging started Mon Nov 21 23:39:55 2016


Gurobi 5.6.3 (linux64) logging started Mon Nov 21 23:40:22 2016


Gurobi 5.6.3 (linux64) logging started Mon Nov 21 23:41:28 2016


Gurobi 5.6.3 (linux64) logging started Mon Nov 21 23:42:12 2016


Gurobi 5.6.3 (linux64) logging started Mon Nov 21 23:42:40 2016


Gurobi 5.6.3 (linux64) logging started Mon Nov 21 23:45:05 2016


Gurobi 5.6.3 (linux64) logging started Mon Nov 21 23:45:33 2016

